
Gurobi 10.0.1 (win64) logging started Thu Jul 13 17:43:50 2023

Set parameter LogFile to value "results-360s-mipfocus3-integralityfocus1/log/FTQL_makespan.log"
Gurobi Optimizer version 10.0.1 build v10.0.1rc0 (win64)

CPU model: AMD Ryzen 7 3700X 8-Core Processor, instruction set [SSE2|AVX|AVX2]
Thread count: 8 physical cores, 16 logical processors, using up to 16 threads

Optimize a model with 195 rows, 395 columns and 702 nonzeros
Model fingerprint: 0x71c12e63
Variable types: 0 continuous, 395 integer (370 binary)
Coefficient statistics:
  Matrix range     [1e+00, 1e+08]
  Objective range  [1e+00, 1e+00]
  Bounds range     [1e+00, 1e+00]
  RHS range        [1e+00, 3e+08]
Presolve removed 78 rows and 322 columns
Presolve time: 0.00s
Presolved: 117 rows, 73 columns, 332 nonzeros
Variable types: 0 continuous, 73 integer (49 binary)
Root relaxation presolved: 117 rows, 73 columns, 332 nonzeros


Root relaxation: objective 1.569600e+05, 37 iterations, 0.00 seconds (0.00 work units)

    Nodes    |    Current Node    |     Objective Bounds      |     Work
 Expl Unexpl |  Obj  Depth IntInf | Incumbent    BestBd   Gap | It/Node Time

     0     0 156960.000    0   27          - 156960.000      -     -    0s
H    0     0                    293227.00000 156960.000  46.5%     -    0s
H    0     0                    288181.00000 156960.000  45.5%     -    0s
H    0     0                    278091.00000 156960.000  43.6%     -    0s
H    0     0                    273091.00000 156960.000  42.5%     -    0s
H    0     0                    250942.00000 163176.000  35.0%     -    0s
     0     0 222926.032    0   28 250942.000 222926.032  11.2%     -    0s
     0     0 223181.898    0   34 250942.000 223181.898  11.1%     -    0s
     0     0 223392.486    0   30 250942.000 223392.486  11.0%     -    0s
     0     0 223392.486    0   27 250942.000 223392.486  11.0%     -    0s
     0     0 224886.588    0   39 250942.000 224886.588  10.4%     -    0s
     0     0 224886.588    0   39 250942.000 224886.588  10.4%     -    0s
     0     0 225045.850    0   40 250942.000 225045.850  10.3%     -    0s
     0     0 225045.850    0   40 250942.000 225045.850  10.3%     -    0s
     0     0 225045.850    0   39 250942.000 225045.850  10.3%     -    0s
     0     0 229520.946    0   37 250942.000 229520.946  8.54%     -    0s
     0     0 229532.147    0   42 250942.000 229532.147  8.53%     -    0s
     0     0 229532.147    0   44 250942.000 229532.147  8.53%     -    0s
     0     0 229532.147    0   43 250942.000 229532.147  8.53%     -    0s
     0     0 229532.147    0   45 250942.000 229532.147  8.53%     -    0s
     0     0 229532.147    0   47 250942.000 229532.147  8.53%     -    0s
     0     0 231661.000    0   43 250942.000 231661.000  7.68%     -    0s
     0     0 231741.241    0   44 250942.000 231741.241  7.65%     -    0s
     0     0 231741.241    0   46 250942.000 231741.241  7.65%     -    0s
     0     0 234077.506    0   41 250942.000 234077.506  6.72%     -    0s
     0     0 234288.099    0   43 250942.000 234288.099  6.64%     -    0s
     0     0 234370.609    0   42 250942.000 234370.609  6.60%     -    0s
     0     0 234370.609    0   41 250942.000 234370.609  6.60%     -    0s
     0     0 234370.609    0   41 250942.000 234370.609  6.60%     -    0s
     0     0 234370.609    0   43 250942.000 234370.609  6.60%     -    0s
     0     0 235272.786    0   40 250942.000 235272.786  6.24%     -    0s
     0     0 235533.790    0   50 250942.000 235533.790  6.14%     -    0s
     0     0 235666.481    0   53 250942.000 235666.481  6.09%     -    0s
     0     0 235666.481    0   53 250942.000 235666.481  6.09%     -    0s
     0     0 236244.595    0   52 250942.000 236244.595  5.86%     -    0s
     0     0 236338.734    0   53 250942.000 236338.734  5.82%     -    0s
     0     0 236338.734    0   52 250942.000 236338.734  5.82%     -    0s
     0     0 238395.636    0   51 250942.000 238395.636  5.00%     -    0s
     0     0 238407.670    0   53 250942.000 238407.670  4.99%     -    0s
     0     0 239587.000    0   54 250942.000 239587.000  4.52%     -    0s
     0     0 239622.963    0   53 250942.000 239622.963  4.51%     -    0s
     0     2 239622.963    0   53 250942.000 239622.963  4.51%     -    0s
H  190   148                    250683.00000 241437.593  3.69%  32.6    0s
H  286   181                    250662.00000 243358.942  2.91%  29.0    0s

Cutting planes:
  Gomory: 4
  Implied bound: 33
  MIR: 88
  Flow cover: 418
  Zero half: 49
  RLT: 8
  Relax-and-lift: 125

Explored 836 nodes (16353 simplex iterations) in 0.86 seconds (0.59 work units)
Thread count was 16 (of 16 available processors)

Solution count 7: 250662 250683 250942 ... 293227

Optimal solution found (tolerance 1.00e-04)
Best objective 2.506620000000e+05, best bound 2.506620000000e+05, gap 0.0000%
Warning: constraint name "precedence between 1,1 to 0,0 if x_[j,l,h,z,i]=1" has a space
Warning: constraint name "precedence between 1,1 to 0,0 if x_[j,l,h,z,i]=1" has a space
Warning: default constraint names used to write mps file
